p cnf 94 302
4 5 -6 0
-4 -5 -6 0
4 -5 6 0
-4 5 6 0
7 3 0
7 -6 0
-3 6 -7 0
8 -2 0
8 7 0
2 -7 -8 0
-9 -8 0
-9 -3 0
8 3 9 0
-10 -1 0
-10 9 0
1 -9 10 0
13 11 0
13 12 0
-11 -12 -13 0
-10 13 -14 0
10 -13 -14 0
-10 -13 14 0
10 13 14 0
16 6 0
16 15 0
-6 -15 -16 0
17 -14 0
17 -16 0
14 16 -17 0
-4 18 -19 0
4 -18 -19 0
-4 -18 19 0
4 18 19 0
-8 -4 -20 0
8 4 -20 0
-8 4 20 0
8 -4 20 0
-22 -5 0
-22 21 0
5 -21 22 0
-23 20 0
-23 22 0
-20 -22 23 0
18 23 -24 0
-18 -23 -24 0
18 -23 24 0
-18 23 24 0
23 -13 -25 0
-23 13 -25 0
23 13 25 0
-23 -13 25 0
26 24 0
26 -25 0
-24 25 -26 0
27 19 0
27 26 0
-19 -26 -27 0
28 29 -30 0
-28 -29 -30 0
28 -29 30 0
-28 29 30 0
-31 -7 0
-31 6 0
7 -6 31 0
30 -31 -32 0
-30 31 -32 0
30 31 32 0
-30 -31 32 0
-23 -21 -33 0
23 21 -33 0
-23 21 33 0
23 -21 33 0
-34 -33 0
-34 -33 0
33 34 0
-35 10 0
-35 -34 0
-10 34 35 0
36 32 0
36 -35 0
-32 35 -36 0
-37 3 0
-37 18 0
-3 -18 37 0
38 3 0
38 -3 0
-37 -38 -39 0
37 38 -39 0
-37 38 39 0
37 -38 39 0
-40 21 0
-40 -39 0
-21 39 40 0
42 -21 0
42 -41 0
21 41 -42 0
40 -42 -43 0
-40 42 -43 0
40 42 43 0
-40 -42 43 0
-44 36 0
-44 -43 0
-36 43 44 0
-46 -4 0
-46 18 0
4 -18 46 0
47 -37 0
47 -46 0
37 46 -47 0
45 47 -48 0
-45 -47 -48 0
45 -47 48 0
-45 47 48 0
-48 -47 -49 0
48 47 -49 0
-48 47 49 0
48 -47 49 0
-50 -22 0
-50 13 0
22 -13 50 0
-51 -50 0
-51 -10 0
50 10 51 0
-52 -24 0
-52 -22 0
24 22 52 0
52 41 -53 0
-52 -41 -53 0
52 -41 53 0
-52 41 53 0
-54 51 0
-54 -53 0
-51 53 54 0
55 49 0
55 -54 0
-49 54 -55 0
-56 -44 0
-56 -55 0
44 55 56 0
57 27 0
57 -56 0
-27 56 -57 0
-58 17 0
-58 -57 0
-17 57 58 0
59 37 0
59 -11 0
-37 11 -59 0
-60 6 -61 0
60 -6 -61 0
-60 -6 61 0
60 6 61 0
-62 -61 0
-62 41 0
61 -41 62 0
63 59 0
63 -62 0
-59 62 -63 0
-41 11 -64 0
41 -11 -64 0
-41 -11 64 0
41 11 64 0
21 -6 -65 0
-21 6 -65 0
21 6 65 0
-21 -6 65 0
66 64 0
66 -65 0
-64 65 -66 0
67 7 0
67 38 0
-7 -38 -67 0
-68 -67 0
-68 -6 0
67 6 68 0
-66 68 -69 0
66 -68 -69 0
-66 -68 69 0
66 68 69 0
-70 63 0
-70 -69 0
-63 69 70 0
-71 64 0
-71 29 0
-64 -29 71 0
72 -71 0
72 -20 0
71 20 -72 0
67 -33 -73 0
-67 33 -73 0
67 33 73 0
-67 -33 73 0
74 73 0
74 -29 0
-73 29 -74 0
72 74 -75 0
-72 -74 -75 0
72 -74 75 0
-72 74 75 0
-76 -22 0
-76 -29 0
22 29 76 0
-39 76 -77 0
39 -76 -77 0
-39 -76 77 0
39 76 77 0
78 -67 0
78 47 0
67 -47 -78 0
-79 -77 0
-79 -78 0
77 78 79 0
75 -79 -80 0
-75 79 -80 0
75 79 80 0
-75 -79 80 0
-81 -60 0
-81 41 0
60 -41 81 0
83 11 0
83 -7 0
-11 7 -83 0
84 -18 0
84 -83 0
18 83 -84 0
82 -84 -85 0
-82 84 -85 0
82 84 85 0
-82 -84 85 0
-86 8 0
-86 -85 0
-8 85 86 0
87 -28 0
87 -21 0
28 21 -87 0
-87 -33 -88 0
87 33 -88 0
-87 33 88 0
87 -33 88 0
-86 -88 -89 0
86 88 -89 0
-86 88 89 0
86 -88 89 0
-11 89 -90 0
11 -89 -90 0
-11 -89 90 0
11 89 90 0
-81 90 -91 0
81 -90 -91 0
-81 -90 91 0
81 90 91 0
80 91 -92 0
-80 -91 -92 0
80 -91 92 0
-80 91 92 0
93 70 0
93 92 0
-70 -92 -93 0
-58 -93 -94 0
58 93 -94 0
-58 93 94 0
58 -93 94 0
63 -37 -8 74 -46 0
-7 -83 67 0
-27 -72 61 50 71 67 0
68 -50 -14 0
79 34 69 30 48 0
-12 94 75 32 0
-1 -4 0
42 -3 -27 -49 48 0
-48 -31 -53 91 0
37 50 0
-66 57 0
-39 70 86 -57 -75 -45 0
-1 -24 62 0
-68 -60 47 0
54 -33 0
-1 70 -38 -15 30 82 0
-57 59 91 -23 -64 -63 0
28 86 80 -41 -85 -68 0
-93 29 51 0
-53 -17 -2 -75 0
-63 82 59 42 0
34 -36 0
39 -86 0
-26 -93 -18 0
91 -76 -33 -92 -11 -89 0
-42 -41 14 48 0
92 -78 -14 -10 -74 32 0
-38 -22 25 -39 0
-87 52 0
-46 -1 -5 0
13 2 -65 20 67 -18 0
28 24 34 0
15 -81 -77 94 -42 0
69 11 0
74 40 29 -42 -27 71 0
66 35 4 78 -33 0
-84 51 -45 -70 0
84 -57 -41 0
59 44 63 83 49 -77 0
94 0
